5554967031992763706505,13,1,2,07,5,1,2,09,2,1,2,012,8,1,2,02,2,1,2,06,12,1,2,02,4,1,2,011,14,1,2,06,3,1,2,012,9,1,2,09,6,1,2,014,7,1,2,01,7,1,2,013,6,1,2,03,13,1,2,011,1,1,2,02,14,1,2,07,2,1,2,014,10,1,2,013,13,1,2,013,1,1,2,011,6,1,2,07,9,1,2,03,3,1,2,04,6,1,2,07,14,1,2,07,13,1,2,010,3,1,2,04,2,1,2,02,13,1,2,010,11,1,2,015,14,1,2,05,5,1,2,08,6,1,2,012,15,1,2,07,13,1,2,03,4,1,2,06,6,1,2,08,10,1,2,05,8,1,2,011,6,1,2,03,3,1,2,06,2,1,2,012,5,1,2,09,1,1,2,02,14,1,2,011,15,1,2,010,6,1,2,08,9,1,2,08,11,1,2,0